Total weight: 1217.4790883122196
Route 1: 0 96 94 84 83 64 62 27 26 30 76 19 49 22 20 23 18 89 63 85 95 56 66 74 59 58 77 25 80 0 
Route 2: 0 81 61 1 45 46 7 73 47 15 11 98 69 88 60 79 78 53 99 86 87 9 10 12 14 17 16 13 97 75 21 48 24 57 52 82 90 0 
Route 3: 0 65 91 92 51 34 31 29 28 32 33 50 67 39 44 43 40 38 41 42 3 5 8 6 4 2 55 68 37 36 35 72 71 93 54 70 100 0 
